,x,sigma_xx,sigma_yy,sigma_zz
0,0.1,-0.25310979035467396,-0.21985378792405041,-0.12703642173000232
1,0.18061224489795918,-0.25310979035467396,-0.21985378792405041,-0.12703642173000232
2,0.2612244897959184,-0.25310979035467396,-0.21985378792405041,-0.12703642173000232
3,0.34183673469387754,-0.25310979035467396,-0.21985378792405041,-0.12703642173000232
4,0.4224489795918368,-0.25310979035467396,-0.21985378792405041,-0.12703642173000232
5,0.503061224489796,-0.25310979035467396,-0.21985378792405041,-0.12703642173000232
6,0.5836734693877551,-0.25310979035467396,-0.21985378792405041,-0.12703642173000232
7,0.6642857142857144,-0.25310979035467396,-0.21985378792405041,-0.12703642173000232
8,0.7448979591836735,-0.25310979035467396,-0.21985378792405041,-0.12703642173000232
9,0.8255102040816327,-0.25310979035467396,-0.21985378792405041,-0.12703642173000232
10,0.9061224489795919,-0.25310979035467396,-0.21985378792405041,-0.12703642173000232
11,0.9867346938775511,-0.25310979035467396,-0.21985378792405041,-0.12703642173000232
12,1.0673469387755103,-0.25310979035467396,-0.21985378792405041,-0.12703642173000232
13,1.1479591836734695,-0.25310979035467396,-0.21985378792405041,-0.12703642173000232
14,1.2285714285714289,-0.25310979035467396,-0.21985378792405041,-0.12703642173000232
15,1.309183673469388,-0.25310979035467396,-0.21985378792405041,-0.12703642173000232
16,1.3897959183673472,-0.25310979035467396,-0.21985378792405041,-0.12703642173000232
17,1.4704081632653063,-0.25310979035467396,-0.21985378792405041,-0.12703642173000232
18,1.5510204081632655,-0.03585852807462184,0.17632513575002923,0.19497419983003025
19,1.6316326530612248,-0.03696202599766117,0.0896788771808309,0.08964544019431914
20,1.712244897959184,-0.029418279098081014,0.05271457192062295,0.0496065355105383
21,1.7928571428571431,-0.02253049163273749,0.03354183912662363,0.030289776517419098
22,1.8734693877551023,-0.017235675822078314,0.022462700159532632,0.019669209431887387
23,1.9540816326530615,-0.013311590424715284,0.015589428782865157,0.013314723591220412
24,2.0346938775510206,-0.010417307452021247,0.011102294674723394,0.009278643051398796
25,2.1153061224489798,-0.008270121539039497,0.008057715312490167,0.0065985175457100986
26,2.195918367346939,-0.006661249700412882,0.005928699197704624,0.004756860917169268
27,2.2765306122448985,-0.005441617291728832,0.004403627367922484,0.0034568824153583333
28,2.3571428571428577,-0.0045056417572457794,0.003289634253570388,0.002519408201422765
29,2.437755102040817,-0.0037783962350379694,0.0024628014175937605,0.0018316478780572465
30,2.518367346938776,-0.0032063672415310954,0.0018409799250284809,0.001320085594637424
31,2.598979591836735,-0.002751011261368763,0.0013682473162286084,0.0009353777553292638
32,2.6795918367346943,-0.0023843064344866646,0.0010056591906233811,0.0006435667401098943
33,2.7602040816326534,-0.0020856818817641884,0.0007255560207704894,0.0004207759438646783
34,2.8408163265306126,-0.0018398884250225606,0.0005079535874113609,0.0002499020926687885
35,2.9214285714285717,-0.0016355120278670116,0.00033819450179074843,0.00011849402565805827
36,3.002040816326531,-0.001463927698100351,0.00020538491010593657,1.7358194517703325e-05
37,3.08265306122449,-0.0013185571208070728,0.00010133250882557003,-6.03784802850247e-05
38,3.1632653061224496,-0.0011943372856757966,1.9811893323138523e-05,-0.00011991086665316001
39,3.2438775510204088,-0.0010873368622120274,-4.3952008894027965e-05,-0.0001652035744794687
40,3.324489795918368,-0.0009944768884574155,-9.36525390114242e-05,-0.00019930835365012246
41,3.405102040816327,-0.0009133257195102417,-0.00013216784684512328,-0.00022459220214875807
42,3.485714285714286,-0.0008419472568609677,-0.00016175598582331995,-0.00024290343221659413
43,3.5663265306122454,-0.0007787877621465458,-0.00018419925730615757,-0.00025569397383381435
44,3.6469387755102045,-0.0007225907552379277,-0.00020091214912228394,-0.0002641103998354265
45,3.7275510204081637,-0.0006723325738516002,-0.00021302272619515161,-0.00026906236353235833
46,3.808163265306123,-0.0006271732288595576,-0.00022143457988989859,-0.0002712744674649967
47,3.888775510204082,-0.0005864186479953529,-0.0002268743213377116,-0.00027132591893340284
48,3.969387755102041,-0.0005494914761611345,-0.0002299282632753233,-0.000269681065321208
49,4.050000000000001,-0.0005159083413179384,-0.00023107093966608867,-0.00026671306840890405
50,4.130612244897959,-0.0004852620392182437,-0.0002306874164073285,-0.0002627223746115616
51,4.211224489795918,-0.000457207484352856,-0.00022909084475784448,-0.0002579512082670638
52,4.291836734693877,-0.00043145056155952696,-0.00022653634369095328,-0.00025259500287551774
53,4.372448979591836,-0.0004077391987332866,-0.00022323206795839672,-0.00024681161555489427
54,4.4530612244897965,-0.0003858563925455724,-0.00021934801034011997,-0.00024072798572982832
55,4.533673469387756,-0.00036561405806189134,-0.00021502291879008448,-0.00023444680553828045
56,4.614285714285715,-0.00034684875473752906,-0.00021037027367455896,-0.0002280504270447031
57,4.694897959183674,-0.00032941764364428217,-0.00020548268963172875,-0.00022160489892608654
58,4.775510204081633,-0.00031319539185943514,-0.00020043570059841617,-0.0002151629347761703
59,4.856122448979592,-0.0002980715819578614,-0.00019529079374816679,-0.00020876636444229886
60,4.936734693877551,-0.00028394856451291895,-0.0001900978876083477,-0.00020244812548837258
61,5.0173469387755105,-0.00027073966835645073,-0.0001848973610720171,-0.00019623388733155573
62,5.09795918367347,-0.0002583677022078581,-0.0001797217177773872,-0.0001901433739536554
63,5.178571428571429,-0.00024676369252122824,-0.00017459695308381416,-0.0001841914697807271
64,5.259183673469388,-0.00023586582745588162,-0.00016954369140828482,-0.00017838907694317068
65,5.339795918367347,-0.00022561854092046737,-0.00016457810562554634,-0.00017274387753605854
66,5.420408163265306,-0.00021597174159743678,-0.00015971269379084536,-0.00016726091979182923
67,5.501020408163265,-0.00020688019695987704,-0.0001549569260783681,-0.0001619431321648866
68,5.581632653061225,-0.00019830289688090892,-0.00015031777926368582,-0.00015679171276522305
69,5.662244897959184,-0.00019020261404422217,-0.00014580014104303453,-0.00015180647432564418
70,5.742857142857143,-0.00018254547496983613,-0.00014140722426211511,-0.00014698611739424566
71,5.823469387755102,-0.0001753005893782788,-0.0001371408469319026,-0.00014232848199873907
72,5.904081632653061,-0.00016843973570654925,-0.00013300169661593057,-0.00013783071292542386
73,5.98469387755102,-0.00016193707822148364,-0.0001289895368624478,-0.00013348942575008453
74,6.0653061224489795,-0.00015576892526364145,-0.0001251033839073547,-0.00012930083073912435
75,6.1459183673469395,-0.00014991353097056466,-0.00012134162962863256,-0.0001252608085319698
76,6.226530612244899,-0.00014435054466666354,-0.00011770270760736218,-0.0001213656098746706
77,6.307142857142858,-0.00013906265460159422,-0.00011418317697507613,-0.00011760959922245392
78,6.387755102040817,-0.00013403129637289834,-0.0001107810093648698,-0.00011398934476145995
79,6.468367346938776,-0.00012924154519792318,-0.00010749328579287364,-0.00011049996586075531
80,6.548979591836735,-0.00012467880205658944,-0.00010431684304278961,-0.00010713694812309743
81,6.629591836734694,-0.00012032950863416318,-0.00010124849817348992,-0.00010389581087866727
82,6.710204081632654,-0.00011618114900192711,-9.828500561456656e-05,-0.00010077213064846059
83,6.790816326530613,-0.00011222209893810713,-9.5423087157907e-05,-9.776156525953275e-05
84,6.871428571428572,-0.00010844155015513303,-9.265945881062722e-05,-9.485986852650617e-05
85,6.952040816326531,-0.00010482944216919012,-8.999085286800156e-05,-9.206290146818249e-05
86,7.03265306122449,-0.00010137640159211022,-8.741403499585048e-05,-8.936663980881911e-05
87,7.113265306122449,-9.807368203102341e-05,-8.492582155342471e-05,-8.676718283379802e-05
88,7.1938775510204085,-9.491312440756389e-05,-8.252308634914118e-05,-8.42607526401603e-05
89,7.274489795918368,-9.18870992019657e-05,-8.020277249730613e-05,-8.184369935618669e-05
90,7.355102040816327,-8.898847185633971e-05,-7.796189839283915e-05,-7.95125012054477e-05
91,7.435714285714286,-8.621056356000696e-05,-7.57975627037798e-05,-7.726376425200635e-05
92,7.516326530612245,-8.3547116907281e-05,-7.370694791594797e-05,-7.509422127059051e-05
93,7.596938775510204,-8.099226253155653e-05,-7.168732470668674e-05,-7.30007319520429e-05
94,7.677551020408163,-7.854050263731745e-05,-6.973604528495716e-05,-7.0980272607785e-05
95,7.7581632653061225,-7.618665659435063e-05,-6.78505557729673e-05,-6.902994490267706e-05
96,7.838775510204082,-7.39258688956978e-05,-6.602838818209946e-05,-6.714696531550528e-05
97,7.919387755102042,-7.175356936273978e-05,-6.426716173375943e-05,-6.532866349262415e-05
98,8.0,-6.966545679846015e-05,-6.25645816583966e-05,-6.3572478729544e-05
